c --- [ banner ] -------------------------------------------------------------
c 
c CaDiCaL Radically Simplified CDCL SAT Solver
c Copyright (c) 2016-2021 A. Biere, M. Fleury, N. Froleyks
c 
c Version 1.5.2 9c38a080b32c28d805e8e6ca21849856b0cda605
c g++ (Ubuntu 7.5.0-3ubuntu1~18.04) 7.5.0 -Wall -Wextra -O3 -DNDEBUG
c Wed Feb 16 23:15:36 EST 2022 Linux fac-vanhoeve01 5.4.0-99-generic x86_64
c 
c --- [ limit ] --------------------------------------------------------------
c 
c setting time limit to 600 seconds real time (due to '-t 600')
c setting conflict limit to 1000000000 conflicts (due to '1000000000')
c 
c --- [ parsing input ] ------------------------------------------------------
c 
c reading DIMACS file from 'ddfwcnfs/le450_15c.col_15.cnf'
c opening file to read 'ddfwcnfs/le450_15c.col_15.cnf'
c found 'p cnf 6750 232590' header
c parsed 232590 clauses in 0.11 seconds process time
c closing file 'ddfwcnfs/le450_15c.col_15.cnf'
c after reading 3202602 bytes 3.1 MB
c 
c --- [ options ] ------------------------------------------------------------
c 
c all options are set to their default value
c 
c --- [ solving ] ------------------------------------------------------------
c 
c time measured in process time since initialization
c 
c  seconds  reductions  redundant  irredundant
c         MB    restarts       trail      variables
c          level   conflicts       glue        remaining
c 
c *  0.11 24  0 0   0    0    0  0% 0 232365 6525 97%
c {  0.11 24  0 0   0    0    0  0% 0 232365 6525 97%
c -  0.15 24 13 1   0  300  147 17% 11 232365 6525 97%
c }  0.18 24 13 1  21 1002  535 16% 11 232365 6525 97%
c [  0.18 24  0 1  21 1002  535  0% 0 232365 6525 97%
c O  0.18 24  7 1  21 1003  536 18% 7 232365 6525 97%
c -  0.27 31 14 2  21 1119  540 28% 10 232365 6525 97%
c -  0.38 31 17 3  22 2349 1104 22% 13 232365 6525 97%
c ]  0.41 31 17 3  22 3002 1616 22% 13 232365 6525 97%
c {  0.41 31 13 3  22 3002 1616 16% 11 232365 6525 97%
c F  0.41 31 13 3  22 3004 1618 16% 11 232365 6525 97%
c -  0.50 32 14 4  60 3988 1436 19% 12 232365 6525 97%
c #  0.71 31 14 4 106 6005 2488 20% 12 232365 6525 97%
c -  0.76 31 14 5 107 6038 1524 20% 12 232365 6525 97%
c }  0.80 31 14 5 122 7002 2035 21% 12 232365 6525 97%
c [  0.80 31 17 5 122 7002 2035 22% 13 232365 6525 97%
c -  0.91 31 18 6 123 8498 1886 21% 14 232365 6525 97%
c I  0.97 31 19 6 124 10007 2832 21% 15 232365 6525 97%
c s  1.06 40 24 6 125 10309 2912 23% 16 232365 6525 97%
c e  1.47 40 24 6 125 10309   56 23% 16 157980 4978 74%
c 
c  seconds  reductions   redundant   irredundant
c         MB    restarts        trail       variables
c          level    conflicts       glue         remaining
c 
c s  1.57 40 24 6 125 10309   55 23% 16 157980 4978 74%
c ^  1.59 40 24 6 125 10309   55 23% 16 157980 4978 74%
c -  1.89 39 27 7 126 11367  977 62% 18 157980 4978 74%
c -  2.43 44 30 8 127 14244 3097 62% 21 157980 4978 74%
c ]  2.76 44 31 8 127 15002 3805 62% 22 157980 4978 74%
c {  2.76 44 14 8 127 15002 3805 28% 12 157980 4978 74%
c B  2.77 44 15 8 128 15008 3811 28% 12 157980 4978 74%
c -  3.21 50 21 9 489 17480 3638 31% 15 157980 4978 74%
c W  3.86 50 23 9 865 21011 6537 32% 16 157980 4978 74%
c -  3.92 50 24 10 878 21075 3871 33% 16 157980 4978 74%
c -  4.44 50 24 11 1208 25030 3941 32% 17 157980 4978 74%
c F  4.64 50 23 11 1279 28012 5967 30% 16 157980 4978 74%
c -  4.73 50 22 12 1286 29345 4005 29% 16 157980 4978 74%
c s  5.00 50 22 12 1286 30262 4245 28% 15 157980 4978 74%
c w  5.09 50 22 12 1286 30262 4243 28% 15 157980 4978 74%
c s  5.30 50 22 12 1286 30262 3933 28% 15 157980 4978 74%
c ^  5.31 50 22 12 1286 30262 3933 28% 15 157980 4978 74%
c }  5.35 50 22 12 1286 31003 4267 27% 15 157980 4978 74%
c [  5.35 50 31 12 1286 31003 4267 62% 22 157980 4978 74%
c -  5.51 50 27 13 1287 34022 4275 41% 20 157980 4978 74%
c 
c  seconds  reductions     redundant   irredundant
c         MB     restarts         trail       variables
c          level      conflicts       glue         remaining
c 
c B  5.60 50 26 13 1289 36017 5639 35% 19 157980 4978 74%
c -  6.19 40 47 14 1291 39058 5680 41% 26 157980 4978 74%
c -  7.16 41 50 15 1293 44451 6729 47% 30 157980 4978 74%
c W  7.58 41 51 15 1293 45018 7268 48% 30 157980 4978 74%
c -  8.98 41 50 16 1294 50205 6927 51% 32 157980 4978 74%
c O  9.60 41 49 16 1295 55020 10687 51% 33 157980 4978 74%
c -  9.90 40 49 17 1297 56317 7105 51% 32 157980 4978 74%
c s 10.67 40 47 17 1299 60191 9998 52% 32 157980 4978 74%
c w 10.78 40 47 17 1299 60191 9998 52% 32 157980 4978 74%
c s 10.99 40 47 17 1299 60191 9940 52% 32 157980 4978 74%
c ^ 11.00 40 47 17 1299 60191 9940 52% 32 157980 4978 74%
c - 11.57 46 46 18 1301 62790 7657 53% 31 157980 4978 74%
c ] 11.61 46 46 18 1301 63004 7842 53% 31 157980 4978 74%
c { 11.61 46 22 18 1301 63004 7842 27% 15 157980 4978 74%
c B 11.85 46 21 18 1411 66022 10109 27% 15 157980 4978 74%
c - 12.21 46 22 19 1651 69622 7221 27% 15 157980 4978 74%
c - 12.93 46 21 20 1912 76814 6143 26% 15 157980 4978 74%
c W 13.49 46 21 20 1920 78024 6896 25% 15 157980 4978 74%
c - 14.66 50 23 21 2887 84367 7430 28% 16 157980 4978 74%
c # 15.65 50 24 21 3669 91028 12518 29% 17 157980 4978 74%
c 
c  seconds  reductions     redundant   irredundant
c         MB     restarts         trail       variables
c          level      conflicts       glue         remaining
c 
c - 15.81 50 25 22 3708 92280 8162 29% 17 157980 4978 74%
c s 16.81 50 25 22 4400 100097 13304 30% 17 157980 4978 74%
c w 16.94 50 25 22 4400 100097 13303 30% 17 157980 4978 74%
c s 17.17 50 25 22 4400 100097 13203 30% 17 157980 4978 74%
c ^ 17.19 50 25 22 4400 100097 13203 30% 17 157980 4978 74%
c - 17.27 50 25 23 4400 100551 7840 30% 17 157980 4978 74%
c B 17.68 50 24 23 4400 105029 10329 29% 16 157980 4978 74%
c - 18.84 51 26 24 5436 109180 8454 31% 17 157980 4978 74%
c - 19.36 51 25 25 5675 118169 7136 29% 17 157980 4978 74%
c W 20.30 51 25 25 5675 120030 8072 28% 17 157980 4978 74%
c } 20.63 51 24 25 5675 127005 11973 27% 16 157980 4978 74%
c [ 20.63 51 46 25 5675 127005 11973 53% 31 157980 4978 74%
c - 20.71 51 45 26 5675 127520 7504 52% 31 157980 4978 74%
c B 21.15 51 40 26 5680 136031 13514 44% 28 157980 4978 74%
c - 21.42 51 43 27 5681 137228 9610 44% 29 157980 4978 74%
c - 23.70 51 46 28 5683 147299 12114 48% 30 157980 4978 74%
c s 24.31 51 46 28 5683 149978 14439 49% 30 157980 4978 74%
c w 24.45 51 46 28 5683 149978 14439 49% 30 157980 4978 74%
c s 24.67 51 46 28 5683 149978 14406 49% 30 157980 4978 74%
c ^ 24.69 51 46 28 5683 149978 14406 49% 30 157980 4978 74%
c 
c  seconds  reductions       redundant   irredundant
c         MB     restarts           trail       variables
c          level      conflicts         glue         remaining
c 
c W 26.39 51 47 28 5684 153032 17289 50% 31 157980 4978 74%
c - 27.40 51 56 29 5684 157728 13743 50% 32 157980 4978 74%
c - 30.10 44 73 30 5685 168515 14789 52% 35 157980 4978 74%
c I 30.64 44 72 30 5687 171033 17059 52% 35 157980 4978 74%
c - 32.11 43 76 31 5691 179663 14135 52% 36 157980 4978 74%
c B 34.45 43 73 31 5698 190034 23705 53% 36 157980 4978 74%
c - 34.74 43 75 32 5698 191170 14778 53% 37 157980 4978 74%
c - 37.33 51 77 33 5701 203037 14891 54% 38 157980 4978 74%
c s 38.97 51 74 33 5706 209835 20697 55% 38 157980 4978 74%
c w 39.15 51 74 33 5706 209835 20696 55% 38 157980 4978 74%
c s 39.43 51 74 33 5706 209835 20690 55% 38 157980 4978 74%
c W 40.97 51 74 33 5706 210036 20858 55% 38 157980 4978 74%
c - 41.95 51 71 34 5708 215263 15028 55% 37 157980 4978 74%
c - 44.61 51 68 35 5714 227849 15614 56% 36 157980 4978 74%
c O 45.14 51 67 35 5714 231037 18412 56% 36 157980 4978 74%
c - 47.34 56 63 36 5715 240794 16388 56% 35 157980 4978 74%
c B 49.84 56 59 36 5716 253038 27180 57% 34 157980 4978 74%
c - 50.20 56 59 37 5716 254099 17182 57% 34 157980 4978 74%
c ] 50.42 56 59 37 5716 255006 17988 57% 34 157980 4978 74%
c { 50.42 56 24 37 5716 255006 17988 27% 16 157980 4978 74%
c 
c  seconds  reductions       redundant   irredundant
c         MB     restarts           trail       variables
c          level      conflicts         glue         remaining
c 
c - 52.74 56 25 38 7511 267763 15817 29% 17 157980 4978 74%
c F 53.55 56 24 38 7726 276039 20864 28% 16 157980 4978 74%
c - 53.83 56 23 39 7732 281786 12800 27% 16 157980 4978 74%
c - 54.56 56 21 40 7744 296169 13828 24% 15 157980 4978 74%
c B 54.74 56 21 40 7747 300040 16094 23% 14 157980 4978 74%
c - 55.47 56 20 41 8022 310911 13865 23% 14 157980 4978 74%
c W 58.11 56 19 41 8149 325042 21271 22% 14 157980 4978 74%
c - 58.43 56 20 42 8391 326013 12390 23% 14 157980 4978 74%
c - 59.99 56 20 43 9189 341474 13042 23% 14 157980 4978 74%
c # 60.42 56 19 43 9246 351044 18288 22% 14 157980 4978 74%
c - 60.78 56 19 44 9272 357296 13008 22% 14 157980 4978 74%
c - 61.62 56 18 45 9376 373477 12661 22% 14 157980 4978 74%
c B 61.85 56 18 45 9420 378050 15087 22% 13 157980 4978 74%
c - 62.82 56 18 46 9644 390021 15238 22% 13 157980 4978 74%
c W 66.14 56 18 46 10062 406051 27630 21% 13 157980 4978 74%
c - 66.26 56 18 47 10094 406921 17840 21% 13 157980 4978 74%
c - 67.47 56 19 48 10660 424180 18704 21% 13 157980 4978 74%
c F 68.20 56 19 48 10918 435052 27306 21% 13 157980 4978 74%
c - 68.56 56 19 49 11023 441800 18312 20% 13 157980 4978 74%
c - 69.73 56 18 50 11554 459779 14236 20% 13 157980 4978 74%
c 
c  seconds  reductions        redundant   irredundant
c         MB      restarts           trail       variables
c          level       conflicts         glue         remaining
c 
c B 69.99 56 18 50 11677 465055 16880 20% 13 157980 4978 74%
c - 70.91 56 17 51 12192 478118 14255 20% 13 157980 4978 74%
c W 75.33 56 18 51 13461 496058 25837 21% 13 157980 4978 74%
c - 75.43 56 18 52 13468 496817 15695 21% 13 157980 4978 74%
c } 76.06 56 18 52 13586 511009 23298 21% 13 157980 4978 74%
c [ 76.06 56 59 52 13586 511009 23298 57% 34 157980 4978 74%
c - 76.37 56 57 53 13586 515876 15289 55% 33 157980 4978 74%
c W 80.06 56 52 53 13586 528060 23161 49% 31 157980 4978 74%
c - 80.55 56 50 54 13586 535295 17662 46% 30 157980 4978 74%
c - 82.04 56 46 55 13596 555072 18223 40% 27 157980 4978 74%
c I 82.87 56 46 55 13600 561063 23374 41% 28 157980 4978 74%
c - 86.56 56 56 56 13603 575209 23412 44% 32 157980 4978 74%
c s 86.60 56 56 56 13603 575209 20434 44% 32 157980 4978 74%
c w 87.01 56 56 56 13603 575209 20390 44% 32 157980 4978 74%
c B 93.11 56 58 56 13615 595065 38128 48% 36 157980 4978 74%
c - 93.45 47 58 57 13615 595707 25566 48% 36 157980 4978 74%
c - 100.41 48 59 58 13617 616562 28037 50% 38 157980 4978 74%
c W 107.53 48 59 58 13623 630069 40472 52% 39 157980 4978 74%
c - 109.49 48 61 59 13627 637777 28063 52% 40 157980 4978 74%
c - 115.10 45 56 60 13635 659355 25933 54% 38 157980 4978 74%
c 
c  seconds   reductions        redundant   irredundant
c          MB      restarts           trail       variables
c           level       conflicts         glue         remaining
c 
c O 117.02 45 55 60 13639 666071 31813 55% 37 157980 4978 74%
c - 121.23 53 52 61 13646 681289 26164 55% 36 157980 4978 74%
c B 126.69 53 49 61 13648 703072 44534 56% 35 157980 4978 74%
c - 126.83 53 49 62 13648 703582 26772 55% 35 157980 4978 74%
c - 132.14 53 48 63 13649 726236 28424 56% 34 157980 4978 74%
c W 140.32 53 47 63 13650 741074 41986 57% 34 157980 4978 74%
c - 142.52 64 46 64 13650 749249 30412 57% 34 157980 4978 74%
c - 149.64 64 44 65 13650 772622 30589 57% 33 157980 4978 74%
c I 151.82 64 43 65 13650 780078 36668 57% 32 157980 4978 74%
c - 155.67 64 78 66 13650 796354 30755 57% 39 157980 4978 74%
c B 160.87 64 91 66 13659 820079 52478 57% 42 157980 4978 74%
c - 161.05 49 91 67 13659 820447 30997 57% 42 157980 4978 74%
c - 166.30 45 82 68 13670 844900 29397 57% 42 157980 4978 74%
c W 175.50 45 77 68 13679 861080 43311 57% 41 157980 4978 74%
c - 177.52 56 75 69 13680 869713 30609 57% 41 157980 4978 74%
c - 184.79 66 68 70 13686 894883 31729 58% 40 157980 4978 74%
c O 187.22 66 66 70 13690 903081 39299 59% 39 157980 4978 74%
c - 190.58 66 62 71 13696 920415 32178 58% 38 157980 4978 74%
c B 196.59 66 58 71 13710 946083 55419 58% 37 157980 4978 74%
c - 196.75 66 58 72 13710 946304 32302 58% 37 157980 4978 74%
c 
c  seconds   reductions        redundant   irredundant
c          MB      restarts           trail       variables
c           level       conflicts         glue         remaining
c 
c - 203.33 66 56 73 13713 972556 31524 59% 37 157980 4978 74%
c W 214.21 66 55 73 13713 990085 46846 59% 37 157980 4978 74%
c - 217.11 66 54 74 13713 999165 33824 59% 36 157980 4978 74%
c s 217.21 66 54 74 13713 999165 33446 59% 36 157980 4978 74%
c w 217.61 66 54 74 13713 999165 33440 59% 36 157980 4978 74%
c ] 224.99 66 52 74 13724 1023011 54533 60% 36 157980 4978 74%
c { 224.99 66 18 74 13724 1023011 54533 21% 13 157980 4978 74%
c - 225.65 67 18 75 14180 1026133 35802 21% 13 157980 4978 74%
c # 226.64 67 18 75 14873 1035089 41650 21% 13 157980 4978 74%
c - 227.84 67 18 76 15100 1053462 26127 21% 13 157980 4978 74%
c B 229.22 67 17 76 15300 1081090 40920 19% 13 157980 4978 74%
c - 229.31 67 17 77 15315 1081153 22194 19% 13 157980 4978 74%
c - 231.27 67 19 78 15846 1109200 28211 19% 13 157980 4978 74%
c W 239.42 67 20 78 16294 1128091 42833 19% 13 157980 4978 74%
c - 240.36 67 20 79 17105 1137606 30250 19% 13 157980 4978 74%
c - 242.07 67 18 80 17640 1166372 23295 19% 13 157980 4978 74%
c F 242.56 67 18 80 17849 1176094 28254 19% 13 157980 4978 74%
c - 244.07 67 18 81 19041 1195499 22634 20% 13 157980 4978 74%
c - 245.53 67 17 82 19598 1224984 21020 19% 13 157980 4978 74%
c B 245.55 67 17 82 19627 1225097 21088 19% 13 157980 4978 74%
c 
c  seconds   reductions         redundant   irredundant
c          MB      restarts            trail       variables
c           level        conflicts         glue         remaining
c 
c - 248.01 67 18 83 22752 1254829 21984 21% 14 157980 4978 74%
c W 256.93 67 18 83 23668 1275100 32137 21% 14 157980 4978 74%
c - 257.58 67 18 84 23925 1285033 21747 21% 14 157980 4978 74%
c - 259.16 67 17 85 24230 1315598 23411 20% 13 157980 4978 74%
c # 259.74 67 16 85 24456 1326103 28709 20% 13 157980 4978 74%
c - 261.99 67 18 86 26275 1346522 25228 21% 14 157980 4978 74%
c - 263.62 67 17 87 26655 1377806 23661 21% 13 157980 4978 74%
c B 263.65 67 17 87 26657 1378104 23841 21% 13 157980 4978 74%
c - 266.08 67 17 88 28335 1409450 23704 22% 14 157980 4978 74%
c W 274.89 67 17 88 28600 1431106 35016 22% 14 157980 4978 74%
c - 275.57 67 16 89 28798 1441453 23582 22% 13 157980 4978 74%
c - 277.51 67 16 90 29289 1473818 23152 22% 13 157980 4978 74%
c s 277.56 67 16 90 29289 1473818 20286 22% 13 157980 4978 74%
c w 277.89 67 16 90 29289 1473818 20277 22% 13 157980 4978 74%
c F 278.74 67 16 90 29594 1485109 25590 21% 13 157980 4978 74%
c - 280.03 67 15 91 29897 1506540 22210 21% 13 157980 4978 74%
c - 281.81 67 15 92 30589 1539621 22336 21% 13 157980 4978 74%
c B 281.84 67 15 92 30603 1540114 22651 21% 13 157980 4978 74%
c - 283.81 67 16 93 31951 1573062 26043 21% 13 157980 4978 74%
c W 293.55 67 15 93 32882 1596115 36807 21% 13 157980 4978 74%
c 
c  seconds   reductions         redundant   irredundant
c          MB      restarts            trail       variables
c           level        conflicts         glue         remaining
c 
c - 294.31 67 15 94 33198 1606863 23610 21% 13 157980 4978 74%
c - 296.05 67 15 95 34042 1641024 23911 19% 12 157980 4978 74%
c # 296.58 67 14 95 34162 1653117 30090 18% 12 157980 4978 74%
c - 297.55 67 14 96 34201 1675544 26375 17% 12 157980 4978 74%
c - 299.24 67 14 97 35410 1710423 27368 17% 11 157980 4978 74%
c B 299.28 67 14 97 35431 1711120 27702 17% 11 157980 4978 74%
c - 301.52 67 14 98 37374 1745662 28365 18% 12 157980 4978 74%
c W 312.26 67 15 98 39289 1770121 43068 18% 12 157980 4978 74%
c - 313.38 67 16 99 39954 1781260 29408 19% 13 157980 4978 74%
c - 315.61 67 16 100 41001 1817218 28407 19% 13 157980 4978 74%
c F 316.26 67 16 100 41098 1830122 35355 19% 12 157980 4978 74%
c - 317.56 67 15 101 41402 1853535 27746 18% 12 157980 4978 74%
c - 319.96 67 15 102 42200 1890213 26865 18% 12 157980 4978 74%
c B 320.01 67 15 102 42205 1891124 27260 18% 12 157980 4978 74%
c - 323.61 67 17 103 45152 1927252 31809 20% 13 157980 4978 74%
c W 334.69 67 16 103 45382 1953126 46503 19% 12 157980 4978 74%
c - 335.40 67 16 104 45420 1964648 30820 19% 12 157980 4978 74%
c - 337.87 67 15 105 45653 2002405 32068 18% 12 157980 4978 74%
c s 337.94 67 15 105 45653 2002405 24686 18% 12 157980 4978 74%
c w 338.29 67 15 105 45653 2002405 24678 18% 12 157980 4978 74%
c 
c  seconds    reductions         redundant   irredundant
c          MB       restarts            trail       variables
c           level         conflicts         glue         remaining
c 
c # 339.21 67 14 105 45766 2016128 31787 18% 11 157980 4978 74%
c - 340.64 67 14 106 46274 2040522 30760 17% 11 157980 4978 74%
c } 340.94 67 14 106 46449 2047012 34006 17% 11 157980 4978 74%
c [ 340.94 67 52 106 46449 2047012 34006 60% 36 157980 4978 74%
c - 343.19 67 43 107 46463 2078997 36200 47% 31 157980 4978 74%
c I 343.29 67 43 107 46464 2080131 36978 47% 31 157980 4978 74%
c - 353.15 85 60 108 46474 2117833 45507 50% 39 157980 4978 74%
c B 360.48 56 57 108 46484 2145132 69256 52% 39 157980 4978 74%
c - 364.20 54 55 109 46491 2157029 45762 53% 38 157980 4978 74%
c - 377.02 68 50 110 46501 2196585 48522 56% 36 157980 4978 74%
c W 392.29 68 48 110 46501 2211134 61431 57% 36 157980 4978 74%
c - 398.07 83 79 111 46502 2236498 51277 57% 41 157980 4978 74%
c - 410.82 83 78 112 46502 2276773 52956 58% 42 157980 4978 74%
c O 411.22 83 78 112 46502 2278135 54268 58% 42 157980 4978 74%
c - 414.36 83 68 113 46503 2317405 45117 50% 36 157980 4978 74%
c B 417.27 83 60 113 46503 2346137 66473 44% 33 157980 4978 74%
c - 419.49 83 75 114 46503 2358398 44821 45% 34 157980 4978 74%
c - 432.58 83 116 115 46503 2399749 53303 50% 38 157980 4978 74%
c W 449.10 83 126 115 46503 2415140 68026 52% 39 157980 4978 74%
c - 457.41 85 108 116 46512 2441460 53856 54% 38 157980 4978 74%
c 
c  seconds    reductions         redundant   irredundant
c          MB       restarts            trail       variables
c           level         conflicts         glue         remaining
c 
c - 472.20 85 85 117 46532 2483531 51501 57% 37 157980 4978 74%
c I 472.73 85 84 117 46532 2485142 52736 57% 37 157980 4978 74%
c - 483.46 85 87 118 46544 2525961 51556 58% 45 157980 4978 74%
c B 492.03 85 84 118 46556 2556144 79488 58% 46 157980 4978 74%
c - 495.12 103 82 119 46563 2568751 53587 59% 45 157980 4978 74%
c s 495.24 103 82 119 46563 2568751 49725 59% 45 157980 4978 74%
c w 495.75 103 82 119 46563 2568751 49719 59% 45 157980 4978 74%
c - 508.23 85 74 120 46566 2611901 55933 59% 44 157980 4978 74%
c W 524.18 85 73 120 46567 2628145 71337 60% 44 157980 4978 74%
c - 534.38 89 67 121 46581 2655411 55824 60% 43 157980 4978 74%
c - 550.39 89 58 122 46597 2699282 53552 61% 40 157980 4978 74%
c O 551.04 89 58 122 46597 2701146 55244 61% 40 157980 4978 74%
c - 559.40 89 51 123 46612 2743512 51348 57% 36 157980 4978 74%
c B 568.79 89 48 123 46627 2775147 79340 57% 35 157980 4978 74%
c - 572.60 89 50 124 46628 2788101 55967 58% 35 157980 4978 74%
c - 589.11 100 52 125 46630 2833048 57551 59% 38 157980 4978 74%
c ] 599.82 100 52 125 46630 2850147 72074 59% 38 157980 4978 74%
c ? 599.82 100 52 125 46630 2850147 72074 59% 38 157980 4978 74%
c 
c --- [ result ] -------------------------------------------------------------
c 
c UNKNOWN
c 
c --- [ run-time profiling ] -------------------------------------------------
c 
c process time taken by individual solving procedures
c (percentage relative to process time for solving)
c 
c       582.47   97.13% search
c       373.43   62.27% stable
c       118.06   19.69% walk
c        90.98   15.17% unstable
c        17.24    2.87% simplify
c         8.31    1.39% probe
c         2.51    0.42% vivify
c         1.22    0.20% ternary
c         1.07    0.18% elim
c         0.80    0.13% subsume
c         0.11    0.02% parse
c         0.00    0.00% lucky
c   =================================
c       599.71   99.98% solve
c 
c last line shows process time for solving
c (percentage relative to total process time)
c 
c --- [ statistics ] ---------------------------------------------------------
c 
c chronological:            460463        16.16 %  of conflicts
c conflicts:               2850147      4752.54    per second
c decisions:               4117998      6866.64    per second
c eliminated:                 1547        22.92 %  of all variables
c fixed:                       225         3.33 %  of all variables
c learned:                 2817993        98.87 %  per conflict
c learned_lits:          226091738       100.00 %  learned literals
c minimized:                     0         0.00 %  learned literals
c shrunken:               93630697        41.41 %  learned literals
c minishrunken:           18572792         8.21 %  learned literals
c propagations:          860398766         1.43 M  per second
c reduced:                 1995557        70.02 %  per conflict
c rephased:                     75     38001.96    interval
c restarts:                  46630        61.12    interval
c stabilizing:                   6        52.11 %  of conflicts
c subsumed:                 747468        12.16 %  of all clauses
c strengthened:              13422         0.22 %  of all clauses
c vivified:                    366         0.01 %  of all clauses
c walked:                       24    118756.12    interval
c weakened:                  96963         2.45    average size
c 
c seconds are measured in process time for solving
c 
c --- [ resources ] ----------------------------------------------------------
c 
c total process time since initialization:       599.82    seconds
c total real time since initialization:          600.02    seconds
c maximum resident set size of process:          103.22    MB
c 
c --- [ shutting down ] ------------------------------------------------------
c 
c exit 0
